
100
15958

1392 712
174 89
522 267
870 445
1044 534
1566 801
696 356
1116 261
248 58
1392 712
348 178
696 356
348 178
696 356
348 178
620 145
372 87
1740 890
1740 890
522 267
868 203
1240 290
372 87
248 58
372 87
1740 890
868 203
348 178
992 232
868 203
868 203
248 58
1392 712
174 89
372 87
124 29
1044 534
372 87
174 89
496 116
522 267
1240 290
620 145
1392 712
348 178
496 116
744 174
868 203
620 145
620 145
496 116
868 203
870 445
348 178
1218 623
992 232
1740 890
174 89
1044 534
1392 712
1218 623
620 145
744 174
744 174
870 445
868 203
744 174
1740 890
1218 623
124 29
496 116
696 356
1218 623
868 203
1566 801
1240 290
744 174
1566 801
868 203
1566 801
868 203
348 178
1116 261
124 29
1240 290
992 232
1240 290
1740 890
124 29
620 145
174 89
1392 712
496 116
870 445
522 267
1240 290
348 178
348 178
744 174
1566 801
